Minimize
3.1x1 + 3.2x2 + 3.11x3 + 3.14x4 + 2.9x5 + 3.04x6 + 3.03x7
subject to
x1 + x2 + x3 = 2
x1 + x4 + x5 = 2
x2 + x4 + x6 = 2
x5 + x6 + x7 = 2
x3 + x7 = 2
x2 + x3 + x4 + x5 >= 2
x1 + x3 + x4 + x6 >= 2
x1 + x2 + x3 + x5 + x6 + x7 >= 2
x1 + x2 + x7 >= 2
x1 + x2 + x5 + x6 >= 2
x1 + x4 + x6 + x7 >= 2
x1 + x3 + x4 + x5 + x7 >= 2
x2 + x4 + x5 + x7 >= 2
x2 + x3 + x4 + x6 + x7 >= 2
x3 + x5 + x6 >= 2
bounds
x1 >= 0
x2 >= 0
x3 >= 0
x4 >= 0
x5 >= 0
x6 >= 0
x7 >= 0
